; benchmark generated from python API
(set-info :status unknown)
(declare-fun x_epoch () Int)
(declare-fun x_shift_period_43322_epoch () Int)
(declare-fun x_year () Int)
(declare-fun x_month () Int)
(declare-fun x_day () Int)
(declare-fun x_shift_period_43322_year () Int)
(declare-fun x_shift_period_43322_month () Int)
(declare-fun x_shift_period_43322_day () Int)
(declare-fun x_shift_period_51756_epoch () Int)
(declare-fun x_shift_period_51756_year () Int)
(declare-fun x_shift_period_51756_month () Int)
(declare-fun x_shift_period_51756_day () Int)
(assert
 (>= x_epoch (- 36584)))
(assert
 (<= x_epoch 36829))
(assert
 (>= x_epoch 8341))
(assert
 (<= x_epoch 8705))
(assert
 (>= x_shift_period_43322_epoch (- 36584)))
(assert
 (<= x_shift_period_43322_epoch 36829))
(assert
 (let (($x2293 (<= x_year 2100)))
 (let (($x1504 (>= x_year 1900)))
 (let (($x684 (= x_month 11)))
 (let (($x1263 (= x_month 9)))
 (let (($x791 (= x_month 6)))
 (let (($x721 (= x_month 4)))
 (let ((?x2607 (ite (or $x721 $x791 $x1263 $x684) 30 31)))
 (let (($x257 (= (mod x_year 4) 0)))
 (let (($x1207 (= (mod x_year 100) 0)))
 (let (($x2715 (= (mod x_year 400) 0)))
 (let (($x656 (ite $x2715 true (ite $x1207 false $x257))))
 (let (($x2319 (= x_month 2)))
 (let ((?x235 (ite $x2319 (ite $x656 29 28) ?x2607)))
 (let (($x2786 (>= x_day 1)))
 (let (($x111 (<= x_month 12)))
 (let (($x2376 (>= x_month 1)))
 (and $x2376 $x111 $x2786 (<= x_day ?x235) $x1504 $x2293))))))))))))))))))
(assert
 (let (($x29 (or (and (= (mod 2000 4) 0) (and (distinct (mod 2000 100) 0) true)) (= (mod 2000 400) 0))))
 (let ((?x36 (ite (= 3 2) (ite $x29 31 31) (ite (= 3 1) (ite $x29 0 0) 0))))
 (let ((?x40 (ite $x29 60 59)))
 (let ((?x41 (ite (= 3 3) ?x40 ?x36)))
 (let ((?x46 (ite (= 3 4) (ite $x29 91 90) ?x41)))
 (let ((?x52 (ite (= 3 5) (ite $x29 121 120) ?x46)))
 (let ((?x58 (ite (= 3 6) (ite $x29 152 151) ?x52)))
 (let ((?x64 (ite (= 3 7) (ite $x29 182 181) ?x58)))
 (let ((?x70 (ite (= 3 8) (ite $x29 213 212) ?x64)))
 (let ((?x76 (ite (= 3 9) (ite $x29 244 243) ?x70)))
 (let ((?x82 (ite (= 3 10) (ite $x29 274 273) ?x76)))
 (let ((?x88 (ite (= 3 11) (ite $x29 305 304) ?x82)))
 (let ((?x16 (- (+ (* 365 (- 2000 1)) (div (- 2000 1) 4)) (div (- 2000 1) 100))))
 (let ((?x95 (+ (+ ?x16 (div (- 2000 1) 400)) (ite (= 3 12) (ite $x29 335 334) ?x88))))
 (let ((?x97 (+ ?x95 (- 1 1))))
 (let (($x257 (= (mod x_year 4) 0)))
 (let (($x1207 (= (mod x_year 100) 0)))
 (let (($x2715 (= (mod x_year 400) 0)))
 (let (($x656 (ite $x2715 true (ite $x1207 false $x257))))
 (let (($x2043 (= 2 x_month)))
 (let ((?x2800 (ite $x2043 (ite $x656 31 31) (ite (= 1 x_month) (ite $x656 0 0) 0))))
 (let (($x914 (= 3 x_month)))
 (let (($x1891 (= 4 x_month)))
 (let ((?x189 (ite $x1891 (ite $x656 91 90) (ite $x914 (ite $x656 60 59) ?x2800))))
 (let (($x2398 (= 5 x_month)))
 (let (($x3221 (= 6 x_month)))
 (let ((?x2274 (ite $x3221 (ite $x656 152 151) (ite $x2398 (ite $x656 121 120) ?x189))))
 (let (($x1117 (= 7 x_month)))
 (let (($x1752 (= 8 x_month)))
 (let ((?x2826 (ite $x1752 (ite $x656 213 212) (ite $x1117 (ite $x656 182 181) ?x2274))))
 (let (($x1153 (= 9 x_month)))
 (let (($x303 (= 10 x_month)))
 (let ((?x2978 (ite $x303 (ite $x656 274 273) (ite $x1153 (ite $x656 244 243) ?x2826))))
 (let (($x2818 (= 11 x_month)))
 (let (($x140 (= 12 x_month)))
 (let ((?x620 (ite $x140 (ite $x656 335 334) (ite $x2818 (ite $x656 305 304) ?x2978))))
 (let ((?x778 (- (+ (* 365 (- x_year 1)) (div (- x_year 1) 4)) (div (- x_year 1) 100))))
 (let ((?x858 (+ (+ (+ ?x778 (div (- x_year 1) 400)) ?x620) (- x_day 1))))
 (= x_epoch (- ?x858 ?x97)))))))))))))))))))))))))))))))))))))))))
(assert
 (let (($x3643 (<= x_shift_period_43322_year 2100)))
 (let (($x3609 (>= x_shift_period_43322_year 1900)))
 (let (($x1582 (= x_shift_period_43322_month 11)))
 (let (($x3032 (= x_shift_period_43322_month 9)))
 (let (($x5849 (= x_shift_period_43322_month 6)))
 (let (($x1180 (= x_shift_period_43322_month 4)))
 (let ((?x3611 (ite (or $x1180 $x5849 $x3032 $x1582) 30 31)))
 (let (($x2021 (= (mod x_shift_period_43322_year 4) 0)))
 (let (($x473 (= (mod x_shift_period_43322_year 100) 0)))
 (let (($x5197 (= (mod x_shift_period_43322_year 400) 0)))
 (let (($x5847 (ite $x5197 true (ite $x473 false $x2021))))
 (let (($x5741 (= x_shift_period_43322_month 2)))
 (let (($x5552 (>= x_shift_period_43322_day 1)))
 (let (($x5840 (<= x_shift_period_43322_month 12)))
 (let (($x5841 (>= x_shift_period_43322_month 1)))
 (and $x5841 $x5840 $x5552 (<= x_shift_period_43322_day (ite $x5741 (ite $x5847 29 28) ?x3611)) $x3609 $x3643)))))))))))))))))
(assert
 (let (($x29 (or (and (= (mod 2000 4) 0) (and (distinct (mod 2000 100) 0) true)) (= (mod 2000 400) 0))))
 (let ((?x36 (ite (= 3 2) (ite $x29 31 31) (ite (= 3 1) (ite $x29 0 0) 0))))
 (let ((?x40 (ite $x29 60 59)))
 (let ((?x41 (ite (= 3 3) ?x40 ?x36)))
 (let ((?x46 (ite (= 3 4) (ite $x29 91 90) ?x41)))
 (let ((?x52 (ite (= 3 5) (ite $x29 121 120) ?x46)))
 (let ((?x58 (ite (= 3 6) (ite $x29 152 151) ?x52)))
 (let ((?x64 (ite (= 3 7) (ite $x29 182 181) ?x58)))
 (let ((?x70 (ite (= 3 8) (ite $x29 213 212) ?x64)))
 (let ((?x76 (ite (= 3 9) (ite $x29 244 243) ?x70)))
 (let ((?x82 (ite (= 3 10) (ite $x29 274 273) ?x76)))
 (let ((?x88 (ite (= 3 11) (ite $x29 305 304) ?x82)))
 (let ((?x16 (- (+ (* 365 (- 2000 1)) (div (- 2000 1) 4)) (div (- 2000 1) 100))))
 (let ((?x95 (+ (+ ?x16 (div (- 2000 1) 400)) (ite (= 3 12) (ite $x29 335 334) ?x88))))
 (let ((?x97 (+ ?x95 (- 1 1))))
 (let (($x2021 (= (mod x_shift_period_43322_year 4) 0)))
 (let (($x473 (= (mod x_shift_period_43322_year 100) 0)))
 (let (($x5197 (= (mod x_shift_period_43322_year 400) 0)))
 (let (($x5847 (ite $x5197 true (ite $x473 false $x2021))))
 (let ((?x2470 (ite (= 2 x_shift_period_43322_month) (ite $x5847 31 31) (ite (= 1 x_shift_period_43322_month) (ite $x5847 0 0) 0))))
 (let ((?x4210 (ite (= 4 x_shift_period_43322_month) (ite $x5847 91 90) (ite (= 3 x_shift_period_43322_month) (ite $x5847 60 59) ?x2470))))
 (let ((?x219 (ite (= 6 x_shift_period_43322_month) (ite $x5847 152 151) (ite (= 5 x_shift_period_43322_month) (ite $x5847 121 120) ?x4210))))
 (let ((?x5879 (ite (= 8 x_shift_period_43322_month) (ite $x5847 213 212) (ite (= 7 x_shift_period_43322_month) (ite $x5847 182 181) ?x219))))
 (let ((?x5869 (ite (= 10 x_shift_period_43322_month) (ite $x5847 274 273) (ite (= 9 x_shift_period_43322_month) (ite $x5847 244 243) ?x5879))))
 (let ((?x3101 (ite (= 12 x_shift_period_43322_month) (ite $x5847 335 334) (ite (= 11 x_shift_period_43322_month) (ite $x5847 305 304) ?x5869))))
 (let ((?x2959 (+ (* 365 (- x_shift_period_43322_year 1)) (div (- x_shift_period_43322_year 1) 4))))
 (let ((?x2515 (+ (- ?x2959 (div (- x_shift_period_43322_year 1) 100)) (div (- x_shift_period_43322_year 1) 400))))
 (= x_shift_period_43322_epoch (- (+ (+ ?x2515 ?x3101) (- x_shift_period_43322_day 1)) ?x97))))))))))))))))))))))))))))))
(assert
 (let ((?x2339 (* 12 x_year)))
 (let ((?x222 (+ ?x2339 (- x_month 1))))
 (let ((?x3684 (+ ?x222 2)))
 (let ((?x4926 (div ?x3684 12)))
 (= x_shift_period_43322_year ?x4926))))))
(assert
 (let ((?x4879 (+ (mod (+ (+ (* 12 x_year) (- x_month 1)) 2) 12) 1)))
 (= x_shift_period_43322_month ?x4879)))
(assert
 (let ((?x4879 (+ (mod (+ (+ (* 12 x_year) (- x_month 1)) 2) 12) 1)))
 (let ((?x5542 (ite (or (= ?x4879 4) (= ?x4879 6) (= ?x4879 9) (= ?x4879 11)) 30 31)))
 (let ((?x2339 (* 12 x_year)))
 (let ((?x222 (+ ?x2339 (- x_month 1))))
 (let ((?x3684 (+ ?x222 2)))
 (let ((?x4926 (div ?x3684 12)))
 (let (($x2044 (ite (= (mod ?x4926 400) 0) true (ite (= (mod ?x4926 100) 0) false (= (mod ?x4926 4) 0)))))
 (let ((?x4060 (ite (= ?x4879 2) (ite $x2044 29 28) ?x5542)))
 (let ((?x4163 (ite (<= x_day ?x4060) x_day ?x4060)))
 (let (($x684 (= x_month 11)))
 (let (($x1263 (= x_month 9)))
 (let (($x791 (= x_month 6)))
 (let (($x721 (= x_month 4)))
 (let ((?x2607 (ite (or $x721 $x791 $x1263 $x684) 30 31)))
 (let (($x257 (= (mod x_year 4) 0)))
 (let (($x1207 (= (mod x_year 100) 0)))
 (let (($x2715 (= (mod x_year 400) 0)))
 (let (($x656 (ite $x2715 true (ite $x1207 false $x257))))
 (let (($x2319 (= x_month 2)))
 (let ((?x235 (ite $x2319 (ite $x656 29 28) ?x2607)))
 (let (($x2597 (= x_day ?x235)))
 (= x_shift_period_43322_day (ite false (ite $x2597 ?x4060 ?x4163) ?x4163))))))))))))))))))))))))
(assert
 (>= x_shift_period_51756_epoch (- 36584)))
(assert
 (<= x_shift_period_51756_epoch 36829))
(assert
 (let (($x4901 (<= x_shift_period_51756_year 2100)))
 (let (($x4039 (>= x_shift_period_51756_year 1900)))
 (let (($x2326 (= x_shift_period_51756_month 11)))
 (let (($x2571 (= x_shift_period_51756_month 9)))
 (let (($x1059 (= x_shift_period_51756_month 6)))
 (let (($x4772 (= x_shift_period_51756_month 4)))
 (let ((?x1515 (ite (or $x4772 $x1059 $x2571 $x2326) 30 31)))
 (let (($x1285 (= (mod x_shift_period_51756_year 4) 0)))
 (let (($x4000 (= (mod x_shift_period_51756_year 100) 0)))
 (let (($x1466 (= (mod x_shift_period_51756_year 400) 0)))
 (let (($x3080 (ite $x1466 true (ite $x4000 false $x1285))))
 (let (($x4240 (= x_shift_period_51756_month 2)))
 (let (($x3619 (>= x_shift_period_51756_day 1)))
 (let (($x4239 (<= x_shift_period_51756_month 12)))
 (let (($x2308 (>= x_shift_period_51756_month 1)))
 (and $x2308 $x4239 $x3619 (<= x_shift_period_51756_day (ite $x4240 (ite $x3080 29 28) ?x1515)) $x4039 $x4901)))))))))))))))))
(assert
 (let (($x29 (or (and (= (mod 2000 4) 0) (and (distinct (mod 2000 100) 0) true)) (= (mod 2000 400) 0))))
 (let ((?x36 (ite (= 3 2) (ite $x29 31 31) (ite (= 3 1) (ite $x29 0 0) 0))))
 (let ((?x40 (ite $x29 60 59)))
 (let ((?x41 (ite (= 3 3) ?x40 ?x36)))
 (let ((?x46 (ite (= 3 4) (ite $x29 91 90) ?x41)))
 (let ((?x52 (ite (= 3 5) (ite $x29 121 120) ?x46)))
 (let ((?x58 (ite (= 3 6) (ite $x29 152 151) ?x52)))
 (let ((?x64 (ite (= 3 7) (ite $x29 182 181) ?x58)))
 (let ((?x70 (ite (= 3 8) (ite $x29 213 212) ?x64)))
 (let ((?x76 (ite (= 3 9) (ite $x29 244 243) ?x70)))
 (let ((?x82 (ite (= 3 10) (ite $x29 274 273) ?x76)))
 (let ((?x88 (ite (= 3 11) (ite $x29 305 304) ?x82)))
 (let ((?x16 (- (+ (* 365 (- 2000 1)) (div (- 2000 1) 4)) (div (- 2000 1) 100))))
 (let ((?x95 (+ (+ ?x16 (div (- 2000 1) 400)) (ite (= 3 12) (ite $x29 335 334) ?x88))))
 (let ((?x97 (+ ?x95 (- 1 1))))
 (let (($x1285 (= (mod x_shift_period_51756_year 4) 0)))
 (let (($x4000 (= (mod x_shift_period_51756_year 100) 0)))
 (let (($x1466 (= (mod x_shift_period_51756_year 400) 0)))
 (let (($x3080 (ite $x1466 true (ite $x4000 false $x1285))))
 (let ((?x3888 (ite (= 2 x_shift_period_51756_month) (ite $x3080 31 31) (ite (= 1 x_shift_period_51756_month) (ite $x3080 0 0) 0))))
 (let ((?x1260 (ite (= 4 x_shift_period_51756_month) (ite $x3080 91 90) (ite (= 3 x_shift_period_51756_month) (ite $x3080 60 59) ?x3888))))
 (let ((?x2426 (ite (= 6 x_shift_period_51756_month) (ite $x3080 152 151) (ite (= 5 x_shift_period_51756_month) (ite $x3080 121 120) ?x1260))))
 (let ((?x5819 (ite (= 8 x_shift_period_51756_month) (ite $x3080 213 212) (ite (= 7 x_shift_period_51756_month) (ite $x3080 182 181) ?x2426))))
 (let ((?x4255 (ite (= 10 x_shift_period_51756_month) (ite $x3080 274 273) (ite (= 9 x_shift_period_51756_month) (ite $x3080 244 243) ?x5819))))
 (let ((?x2102 (ite (= 12 x_shift_period_51756_month) (ite $x3080 335 334) (ite (= 11 x_shift_period_51756_month) (ite $x3080 305 304) ?x4255))))
 (let ((?x693 (+ (* 365 (- x_shift_period_51756_year 1)) (div (- x_shift_period_51756_year 1) 4))))
 (let ((?x5015 (+ (- ?x693 (div (- x_shift_period_51756_year 1) 100)) (div (- x_shift_period_51756_year 1) 400))))
 (= x_shift_period_51756_epoch (- (+ (+ ?x5015 ?x2102) (- x_shift_period_51756_day 1)) ?x97))))))))))))))))))))))))))))))
(assert
 (= x_shift_period_51756_epoch (+ x_epoch 61)))
(assert
 (= x_shift_period_43322_epoch x_shift_period_51756_epoch))
(check-sat)
